benchmarks/VRPTW/TSPTW/solution/n80w60.005.txt.solution
1 17 53 44 27 4 73 65 76 13 64 21 10 69 54 9 47 29 80 36 71 43 14 77 75 57 55 23 20 35 15 67 59 40 50 37 38 46 70 12 18 26 41 8 3 5 28 2 31 19 66 6 48 42 24 49 30 39 51 79 56 22 72 62 68 58 33 11 34 61 52 25 78 16 63 60 7 45 74 81 32 
575
